set Doors = 1 2 3 4 5 6 7 8 9;
set Rooms = A B C D E F G H;

param Cover: A B C D E F G H :=
	1    1 1 0 0 0 0 0 0
	2    1 0 1 0 0 0 0 0
	3    0 0 1 1 0 0 0 0
	4    0 1 0 0 1 0 0 0
	5    0 0 0 1 1 0 0 0
	6    0 0 0 0 1 0 0 0
	7    0 0 0 0 1 0 0 1
	8    0 0 0 0 0 1 1 0
	9    0 0 0 0 0 0 1 1;

